
Gurobi 12.0.2 (win64) logging started Tue Oct  7 14:40:48 2025

Set parameter LogFile to value "C:\Ioana\_uni\honours\slp\algorithm\Main_files\results\paracetamol after removing detox of napqi\Task_003_Sample006_irr_gurobi.log"
Gurobi Optimizer version 12.0.2 build v12.0.2rc0 (win64 - Windows 11.0 (26100.2))

CPU model: Intel(R) Core(TM) Ultra 5 125H, instruction set [SSE2|AVX|AVX2]
Thread count: 14 physical cores, 18 logical processors, using up to 18 threads

Non-default parameters:
TimeLimit  2200

Optimize a model with 47236 rows, 34518 columns and 146728 nonzeros
Model fingerprint: 0x733c1bcf
Variable types: 17269 continuous, 17249 integer (17249 binary)
Coefficient statistics:
  Matrix range     [1e-04, 8e+04]
  Objective range  [1e-04, 9e-01]
  Bounds range     [1e+00, 1e+03]
  RHS range        [1e+00, 1e+00]
Found heuristic solution: objective 1.8031764
Presolve removed 32885 rows and 23036 columns
Presolve time: 0.36s
Presolved: 14351 rows, 11482 columns, 46840 nonzeros
Variable types: 5694 continuous, 5788 integer (5788 binary)

Root relaxation: objective 2.802265e-02, 2428 iterations, 0.15 seconds (0.38 work units)

    Nodes    |    Current Node    |     Objective Bounds      |     Work
 Expl Unexpl |  Obj  Depth IntInf | Incumbent    BestBd   Gap | It/Node Time

     0     0    0.02802    0    2    1.80318    0.02802  98.4%     -    0s
H    0     0                       0.9075941    0.02802  96.9%     -    0s
H    0     0                       0.0589800    0.02802  52.5%     -    0s
     0     0    0.02802    0    2    0.05898    0.02802  52.5%     -    0s

Explored 1 nodes (2428 simplex iterations) in 0.58 seconds (0.84 work units)
Thread count was 18 (of 18 available processors)

Solution count 3: 0.05898 0.907594 1.80318 

Optimal solution found (tolerance 1.00e-04)
Best objective 5.897999955338e-02, best bound 5.897999955338e-02, gap 0.0000%
